NAME          ZeroRows
ROWS
 N  COST
 L  CON1
 G  CON2
 G  CON3
 E  CON4
 G  CON5
COLUMNS
    x1        COST       -1
    x1        CON1        2
    x1        CON2       -1
    x1        CON4        7
    x2        COST        4
    x2        CON1       -3
    x2        CON2        3
    x2        CON4        5
    x3        COST        5
    x3        CON2        2
    x3        CON4        2
    x4        COST       -2
    x5        COST       -8
    x5        CON1        3
    x5        CON2       -1
    x5        CON4       -2
    x6        COST        2
    x6        CON1        1
    x6        CON2       -2
    x6        CON4        4
RHS
    RHS1      CON1        9
    RHS1      CON2        1
    RHS1      CON3       -5
    RHS1      CON4        7
    RHS1      CON5      -10
BOUNDS
 LO BND1      x1         0
 LO BND1      x2         0
 LO BND1      x3         0
 LO BND1      x4         0
 LO BND1      x5         0
 LO BND1      x6         0
ENDATA
